<number of tasks>
50

<cycle time>
1000

<order strength>
0.597


<task times>
1 426
2 431
3 544
4 438
5 706
6 375
7 437
8 542
9 562
10 310
11 493
12 683
13 714
14 367
15 333
16 491
17 172
18 336
19 685
20 521
21 630
22 695
23 579
24 510
25 496
26 425
27 546
28 346
29 333
30 452
31 493
32 433
33 639
34 721
35 685
36 395
37 460
38 394
39 487
40 593
41 704
42 606
43 498
44 596
45 498
46 401
47 485
48 455
49 711
50 367

<precedence relations>
1,7
1,13
2,15
3,8
3,9
4,8
4,9
5,8
5,9
6,8
6,9
7,10
8,11
8,12
8,13
8,14
8,15
9,12
9,13
9,14
9,15
10,16
11,19
12,17
12,18
12,20
12,21
13,20
13,21
14,20
14,21
15,20
15,21
16,22
17,23
18,24
19,25
20,25
20,26
20,27
21,25
21,26
21,27
22,30
23,28
24,31
25,29
25,30
25,31
25,32
25,33
26,30
26,31
26,32
26,33
27,30
27,31
27,32
27,33
28,34
29,35
30,36
30,37
30,39
30,47
31,36
31,47
32,39
32,41
33,37
34,38
35,39
36,40
36,41
37,40
37,41
38,43
39,42
39,44
40,44
40,49
41,50
42,46
43,47
44,45
44,50
45,48
46,49
47,50

<end>
